n1 = 5;
adjacent1 = [| 0, 1, 1, 1, 1
| 1, 0, 0, 0, 1
| 1, 0, 0, 0, 1
| 1, 0, 0, 0, 0
| 1, 1, 1, 0, 0 |];
n2 = 5;
adjacent2 = [| 0, 1, 0, 0, 0
| 1, 0, 1, 0, 0
| 0, 1, 0, 0, 1
| 0, 0, 0, 0, 0
| 0, 0, 1, 0, 0 |];
vertexDeletionCost = [45, 45, 45, 45, 45];
vertexInsertionCost = [45, 45, 45, 45, 45];
vertexSubstitutionCost = [| 90, 90, 90, 90, 90
| 90, 64.85560885536424, 90, 90, 90
| 90, 78.92401408950256, 90, 90, 90
| 83.48652585896721, 90, 90, 90, 90
| 90, 90, 90, 90, 90 |];
edgeDeletionCost = [| 0.0, 7.5, 7.5, 7.5, 7.5
| 7.5, 0.0, 0.0, 0.0, 7.5
| 7.5, 0.0, 0.0, 0.0, 7.5
| 7.5, 0.0, 0.0, 0.0, 0.0
| 7.5, 7.5, 7.5, 0.0, 0.0 |];
edgeInsertionCost = [| 0.0, 7.5, 0.0, 0.0, 0.0
| 7.5, 0.0, 7.5, 0.0, 0.0
| 0.0, 7.5, 0.0, 0.0, 7.5
| 0.0, 0.0, 0.0, 0.0, 0.0
| 0.0, 0.0, 7.5, 0.0, 0.0 |];
edgeSubstitutionCost = array4d(1..n1, 1..n1, 1..n2, 1..n2, [0, 7.5, 0, 0, 0, 7.5, 0, 7.5, 0, 0, 0, 7.5, 0, 0, 7.5, 0, 0, 0, 0, 0, 0, 0, 7.5, 0, 0, 7.5, 0.0, 7.5, 7.5, 7.5, 0.0, 7.5, 0.0, 7.5, 7.5, 7.5, 0.0, 7.5, 7.5, 0.0, 7.5, 7.5, 7.5, 7.5, 7.5, 7.5, 7.5, 0.0, 7.5, 7.5, 7.5, 0.0, 7.5, 7.5, 7.5, 0.0, 7.5, 0.0, 7.5, 7.5, 7.5, 0.0, 7.5, 7.5, 0.0, 7.5, 7.5, 7.5, 7.5, 7.5, 7.5, 7.5, 0.0, 7.5, 7.5, 7.5, 0.0, 7.5, 7.5, 7.5, 0.0, 7.5, 0.0, 7.5, 7.5, 7.5, 0.0, 7.5, 7.5, 0.0, 7.5, 7.5, 7.5, 7.5, 7.5, 7.5, 7.5, 0.0, 7.5, 7.5, 7.5, 0.0, 7.5, 7.5, 7.5, 0.0, 7.5, 0.0, 7.5, 7.5, 7.5, 0.0, 7.5, 7.5, 0.0, 7.5, 7.5, 7.5, 7.5, 7.5, 7.5, 7.5, 0.0, 7.5, 7.5, 7.5, 0.0, 7.5, 7.5, 7.5, 0.0, 7.5, 0.0, 7.5, 7.5, 7.5, 0.0, 7.5, 7.5, 0.0, 7.5, 7.5, 7.5, 7.5, 7.5, 7.5, 7.5, 0.0, 7.5, 7.5, 0, 7.5, 0, 0, 0, 7.5, 0, 7.5, 0, 0, 0, 7.5, 0, 0, 7.5, 0, 0, 0, 0, 0, 0, 0, 7.5, 0, 0, 0, 7.5, 0, 0, 0, 7.5, 0, 7.5, 0, 0, 0, 7.5, 0, 0, 7.5, 0, 0, 0, 0, 0, 0, 0, 7.5, 0, 0, 0, 7.5, 0, 0, 0, 7.5, 0, 7.5, 0, 0, 0, 7.5, 0, 0, 7.5, 0, 0, 0, 0, 0, 0, 0, 7.5, 0, 0, 7.5, 0.0, 7.5, 7.5, 7.5, 0.0, 7.5, 0.0, 7.5, 7.5, 7.5, 0.0, 7.5, 7.5, 0.0, 7.5, 7.5, 7.5, 7.5, 7.5, 7.5, 7.5, 0.0, 7.5, 7.5, 7.5, 0.0, 7.5, 7.5, 7.5, 0.0, 7.5, 0.0, 7.5, 7.5, 7.5, 0.0, 7.5, 7.5, 0.0, 7.5, 7.5, 7.5, 7.5, 7.5, 7.5, 7.5, 0.0, 7.5, 7.5, 0, 7.5, 0, 0, 0, 7.5, 0, 7.5, 0, 0, 0, 7.5, 0, 0, 7.5, 0, 0, 0, 0, 0, 0, 0, 7.5, 0, 0, 0, 7.5, 0, 0, 0, 7.5, 0, 7.5, 0, 0, 0, 7.5, 0, 0, 7.5, 0, 0, 0, 0, 0, 0, 0, 7.5, 0, 0, 0, 7.5, 0, 0, 0, 7.5, 0, 7.5, 0, 0, 0, 7.5, 0, 0, 7.5, 0, 0, 0, 0, 0, 0, 0, 7.5, 0, 0, 7.5, 0.0, 7.5, 7.5, 7.5, 0.0, 7.5, 0.0, 7.5, 7.5, 7.5, 0.0, 7.5, 7.5, 0.0, 7.5, 7.5, 7.5, 7.5, 7.5, 7.5, 7.5, 0.0, 7.5, 7.5, 7.5, 0.0, 7.5, 7.5, 7.5, 0.0, 7.5, 0.0, 7.5, 7.5, 7.5, 0.0, 7.5, 7.5, 0.0, 7.5, 7.5, 7.5, 7.5, 7.5, 7.5, 7.5, 0.0, 7.5, 7.5, 0, 7.5, 0, 0, 0, 7.5, 0, 7.5, 0, 0, 0, 7.5, 0, 0, 7.5, 0, 0, 0, 0, 0, 0, 0, 7.5, 0, 0, 0, 7.5, 0, 0, 0, 7.5, 0, 7.5, 0, 0, 0, 7.5, 0, 0, 7.5, 0, 0, 0, 0, 0, 0, 0, 7.5, 0, 0, 0, 7.5, 0, 0, 0, 7.5, 0, 7.5, 0, 0, 0, 7.5, 0, 0, 7.5, 0, 0, 0, 0, 0, 0, 0, 7.5, 0, 0, 0, 7.5, 0, 0, 0, 7.5, 0, 7.5, 0, 0, 0, 7.5, 0, 0, 7.5, 0, 0, 0, 0, 0, 0, 0, 7.5, 0, 0, 7.5, 0.0, 7.5, 7.5, 7.5, 0.0, 7.5, 0.0, 7.5, 7.5, 7.5, 0.0, 7.5, 7.5, 0.0, 7.5, 7.5, 7.5, 7.5, 7.5, 7.5, 7.5, 0.0, 7.5, 7.5, 7.5, 0.0, 7.5, 7.5, 7.5, 0.0, 7.5, 0.0, 7.5, 7.5, 7.5, 0.0, 7.5, 7.5, 0.0, 7.5, 7.5, 7.5, 7.5, 7.5, 7.5, 7.5, 0.0, 7.5, 7.5, 7.5, 0.0, 7.5, 7.5, 7.5, 0.0, 7.5, 0.0, 7.5, 7.5, 7.5, 0.0, 7.5, 7.5, 0.0, 7.5, 7.5, 7.5, 7.5, 7.5, 7.5, 7.5, 0.0, 7.5, 7.5, 0, 7.5, 0, 0, 0, 7.5, 0, 7.5, 0, 0, 0, 7.5, 0, 0, 7.5, 0, 0, 0, 0, 0, 0, 0, 7.5, 0, 0, 0, 7.5, 0, 0, 0, 7.5, 0, 7.5, 0, 0, 0, 7.5, 0, 0, 7.5, 0, 0, 0, 0, 0, 0, 0, 7.5, 0, 0]);
